Set parameter Username
Academic license - for non-commercial use only - expires 2024-10-29
Set parameter LazyConstraints to value 1
Set parameter TimeLimit to value 600
Gurobi Optimizer version 10.0.0 build v10.0.0rc2 (linux64)

CPU model: AMD FX(tm)-4300 Quad-Core Processor, instruction set [SSE2|AVX]
Thread count: 2 physical cores, 4 logical processors, using up to 4 threads

Optimize a model with 414 rows, 94 columns and 482 nonzeros
Model fingerprint: 0x83515ed7
Variable types: 0 continuous, 94 integer (94 binary)
Coefficient statistics:
  Matrix range     [1e+00, 1e+00]
  Objective range  [1e+00, 1e+01]
  Bounds range     [1e+00, 1e+00]
  RHS range        [1e+00, 1e+00]
Presolve removed 388 rows and 9 columns
Presolve time: 0.00s
Presolved: 26 rows, 85 columns, 86 nonzeros
Variable types: 0 continuous, 85 integer (85 binary)

Root relaxation: objective 1.080000e+02, 22 iterations, 0.00 seconds (0.00 work units)

    Nodes    |    Current Node    |     Objective Bounds      |     Work
 Expl Unexpl |  Obj  Depth IntInf | Incumbent    BestBd   Gap | It/Node Time

     0     0  108.00000    0    -          -  108.00000      -     -    0s
     0     0  109.00000    0    -          -  109.00000      -     -    0s
     0     0  113.00000    0    -          -  113.00000      -     -    0s
     0     0  115.00000    0    -          -  115.00000      -     -    0s
     0     0  115.00000    0    -          -  115.00000      -     -    0s
     0     0  116.00000    0    -          -  116.00000      -     -    0s
     0     0  117.00000    0    -          -  117.00000      -     -    0s
     0     0  117.50000    0    3          -  117.50000      -     -    0s
     0     0  161.00000    0    -          -  161.00000      -     -    0s
     0     0  161.00000    0    -          -  161.00000      -     -    0s
     0     0  162.00000    0    -          -  162.00000      -     -    0s
     0     0  162.00000    0    -          -  162.00000      -     -    0s
     0     0  162.00000    0    -          -  162.00000      -     -    0s
     0     0  162.00000    0    -          -  162.00000      -     -    0s
H    0     0                     263.0000000  162.00000  38.4%     -    0s
     0     0  162.00000    0    4  263.00000  162.00000  38.4%     -    0s
     0     0  182.00000    0    -  263.00000  182.00000  30.8%     -    0s
H    0     0                     236.0000000  182.00000  22.9%     -    0s
     0     0  182.00000    0    3  236.00000  182.00000  22.9%     -    0s
     0     0  190.00000    0    -  236.00000  190.00000  19.5%     -    0s
     0     0  190.00000    0    -  236.00000  190.00000  19.5%     -    0s
     0     0  190.00000    0    4  236.00000  190.00000  19.5%     -    0s
H    0     0                     227.0000000  190.00000  16.3%     -    0s
     0     2  198.00000    0    7  227.00000  198.00000  12.8%     -    1s
H    7     6                     224.0000000  202.00000  9.82%   8.7    1s
H    8     6                     222.0000000  202.00000  9.01%  11.4    1s
   139   105     cutoff   27       222.00000  207.70588  6.44%  14.8    5s
H  140   105                     220.0000000  207.70588  5.59%  14.7    5s
   353   225 infeasible   20       220.00000  208.75000  5.11%   9.1   11s
   599   372  217.00000   18    -  220.00000  209.20000  4.91%   7.8   16s
   806   518  217.00000   19   12  220.00000  209.92308  4.58%   7.4   22s
   984   603  215.00000   13    6  220.00000  210.56825  4.29%   7.2   26s
  1116   704  217.05714   11   20  220.00000  211.43333  3.89%   7.1   30s
  1333   829  219.00000   25    -  220.00000  211.66667  3.79%   7.1   35s
  1485   875  219.00000   17   18  220.00000  216.13043  1.76%   7.1   40s

Cutting planes:
  User: 62
  Gomory: 4
  MIR: 1
  Flow cover: 14
  Zero half: 12
  Lazy constraints: 33

Explored 1561 nodes (12150 simplex iterations) in 43.80 seconds (1.00 work units)
Thread count was 4 (of 4 available processors)

Solution count 6: 220 222 224 ... 263

Optimal solution found (tolerance 1.00e-04)
Best objective 2.200000000000e+02, best bound 2.200000000000e+02, gap 0.0000%

User-callback calls 4368, time in user-callback 42.16 sec
